15972
0 0 0 0 1 1 0 1 1 1 1 0 0 1 0 0 0 0 1 0 0 1 1 0 0 0 0 1 0 0
21 10 13 21 5 8 13 18 21 13 8 13 18 21 13 8 21 18 7 9 21 27 18 7 5 22 27 8 7 27 4 13 10 7 4 21 27 27 7 5 8 13 22 18 4 7 7 8 5 13 22 13 8 7 13 21 27 5 13 9 22 13 8 7 9 4 13 22 9 4 8 22 18 7 4 10 7 9 7 13 8 13 10 10 4 22 10 13 7 8 8 13 18 9 4 8 13 18 21 9 13 13 22 9 4 22 8 9 8 5 22 27 8 5 7 10 27 8 7 5 27 7 8 5 7 10 27 8 13 5 10 13 8 7 13 22 18 8 8 5 8 21 18 9 4 10 27 8 8 9